* ENCODING=ISO-8859-1
NAME          CPLEX
ROWS
 N  obj1    
 G  c1      
 G  c2      
 G  c3      
 G  c4      
 G  c5      
 G  c6      
 G  c7      
 G  c8      
 G  c9      
 G  c10     
 G  c11     
 G  c12     
 G  c13     
 G  c14     
 G  c15     
 G  c16     
 G  c17     
 G  c18     
 G  c19     
 G  c20     
 G  c21     
 G  c22     
 G  c23     
 G  c24     
 G  c25     
 G  c26     
 G  c27     
 G  c28     
 G  c29     
 G  c30     
 G  c31     
 G  c32     
 G  c33     
 G  c34     
 G  c35     
COLUMNS
    MARK0000  'MARKER'                 'INTORG'
    x1        obj1                            1
    x1        c4                            741
    x1        c20                           862
    x2        obj1                            1
    x2        c5                            576
    x2        c15                           462
    x2        c16                           632
    x2        c17                           293
    x2        c22                           154
    x2        c23                           287
    x3        obj1                            1
    x3        c10                           988
    x3        c19                           757
    x3        c26                           671
    x3        c32                           876
    x4        obj1                            1
    x4        c4                            922
    x4        c7                            550
    x4        c8                            395
    x4        c9                            608
    x4        c33                           806
    x4        c34                           907
    x5        obj1                            1
    x5        c20                           341
    x5        c24                           154
    x5        c29                           937
    x5        c30                           380
    x5        c33                           876
    x6        obj1                            1
    x6        c5                            386
    x6        c21                           404
    x6        c24                           591
    x6        c34                           448
    x7        obj1                            1
    x7        c7                            153
    x7        c31                           968
    x8        obj1                            1
    x8        c1                            779
    x8        c2                            776
    x8        c29                           753
    x9        obj1                            1
    x9        c8                            872
    x9        c24                           846
    x9        c25                           349
    x9        c29                           266
    x10       obj1                            1
    x10       c11                           227
    x10       c31                           470
    x10       c32                           871
    x11       obj1                            1
    x11       c9                            983
    x11       c10                           959
    x11       c11                           243
    x11       c21                           974
    x12       obj1                            1
    x12       c7                            214
    x12       c8                            622
    x12       c12                           383
    x12       c13                           245
    x12       c29                           818
    x12       c34                           192
    x13       obj1                            1
    x13       c2                            274
    x14       obj1                            1
    x14       c5                            204
    x14       c23                           197
    x15       obj1                            1
    x15       c14                           486
    x15       c27                           678
    x16       obj1                            1
    x17       obj1                            1
    x17       c5                            288
    x17       c14                           946
    x17       c23                           985
    x17       c29                           995
    x18       obj1                            1
    x18       c3                            451
    x18       c9                            201
    x18       c13                           757
    x18       c14                           732
    x19       obj1                            1
    x19       c1                            900
    x19       c3                            184
    x19       c24                           424
    x19       c26                           119
    x19       c30                           304
    x19       c33                           112
    x19       c35                           811
    x20       obj1                            1
    x20       c15                           980
    x20       c20                           455
    x20       c21                           786
    x20       c31                           935
    x21       obj1                            1
    x21       c1                            980
    x21       c6                            866
    x21       c14                           402
    x21       c20                           386
    x21       c22                           652
    x21       c23                           274
    x21       c26                           230
    x21       c31                           120
    x22       obj1                            1
    x22       c1                            971
    x22       c2                            804
    x22       c9                            880
    x22       c11                           494
    x22       c14                           121
    x22       c16                           139
    x22       c17                           358
    x22       c33                           955
    x22       c34                           579
    x23       obj1                            1
    x23       c2                            803
    x23       c21                           411
    x23       c30                           462
    x23       c35                           747
    x24       obj1                            1
    x24       c6                            510
    x24       c10                           772
    x24       c15                           421
    x25       obj1                            1
    x25       c4                            720
    x25       c14                           871
    x25       c17                           308
    x25       c20                           470
    x25       c29                           522
    x26       obj1                            1
    x26       c1                            165
    x26       c6                            203
    x26       c8                            202
    x26       c10                           826
    x26       c16                           975
    x26       c26                           220
    x26       c35                           949
    x27       obj1                            1
    x27       c5                            587
    x27       c19                           886
    x27       c24                           999
    x27       c33                           349
    x28       obj1                            1
    x28       c11                           481
    x28       c16                           696
    x28       c17                           665
    x28       c30                           972
    x28       c32                           513
    x29       obj1                            1
    x29       c4                            356
    x29       c30                           180
    x30       obj1                            1
    x30       c2                            401
    x30       c3                            570
    x30       c7                            932
    x30       c22                           997
    x30       c24                           913
    x31       obj1                            1
    x31       c1                            896
    x31       c20                           241
    x32       obj1                            1
    x32       c16                           989
    x33       obj1                            1
    x33       c5                            840
    x33       c21                           191
    x33       c23                           471
    x34       obj1                            1
    x34       c11                           125
    x34       c17                           114
    x34       c25                           796
    x34       c26                           326
    x35       obj1                            1
    x35       c7                            353
    x35       c9                            294
    x35       c17                           714
    x35       c18                           966
    x36       obj1                            1
    x36       c4                            565
    x36       c12                           432
    x36       c13                           314
    x36       c19                           364
    x36       c22                           330
    x36       c27                           792
    x37       obj1                            1
    x37       c25                           121
    x38       obj1                            1
    x38       c9                            428
    x38       c11                           184
    x38       c22                           319
    x39       obj1                            1
    x39       c2                            856
    x39       c20                           277
    x40       obj1                            1
    x40       c3                            730
    x40       c11                           320
    x40       c25                           813
    x40       c31                           456
    x40       c33                           467
    x41       obj1                            1
    x41       c21                           705
    x41       c28                           720
    x42       obj1                            1
    x42       c9                            722
    x42       c12                           562
    x42       c32                           163
    x42       c35                           649
    x43       obj1                            1
    x43       c13                           128
    x43       c31                           714
    x44       obj1                            1
    x44       c20                           592
    x44       c23                           151
    x44       c32                           958
    x44       c33                           364
    x45       obj1                            1
    x45       c27                           752
    x45       c34                           745
    x46       obj1                            1
    x46       c1                            815
    x46       c5                            822
    x46       c6                            448
    x46       c12                           261
    x46       c21                           350
    x46       c23                           170
    x46       c31                           869
    x47       obj1                            1
    x47       c14                           543
    x47       c17                           550
    x47       c29                           566
    x47       c31                           426
    x48       obj1                            1
    x48       c4                            193
    x48       c7                            780
    x48       c9                            582
    x48       c28                           911
    x49       obj1                            1
    x49       c8                            428
    x49       c11                           293
    x50       obj1                            1
    x50       c14                           490
    x50       c22                           699
    x51       obj1                            1
    x51       c13                           240
    x51       c25                           306
    x51       c26                           287
    x52       obj1                            1
    x52       c8                            539
    x52       c10                           829
    x52       c15                           993
    x52       c22                           789
    x52       c25                           855
    x52       c30                           725
    x53       obj1                            1
    x53       c7                            748
    x53       c19                           253
    x54       obj1                            1
    x54       c6                            585
    x54       c7                            875
    x54       c21                           647
    x54       c28                           917
    x55       obj1                            1
    x55       c1                            262
    x55       c4                            757
    x55       c8                            676
    x55       c16                           987
    x55       c17                           531
    x56       obj1                            1
    x56       c4                            294
    x56       c15                           946
    x56       c32                           709
    x57       obj1                            1
    x57       c2                            208
    x57       c10                           307
    x57       c17                           761
    x57       c18                           766
    x57       c25                           158
    x57       c28                           586
    x57       c30                           404
    x57       c34                           631
    x58       obj1                            1
    x58       c32                           891
    x58       c34                           224
    x59       obj1                            1
    x59       c5                            867
    x59       c7                            815
    x59       c13                           201
    x59       c15                           367
    x59       c35                           332
    x60       obj1                            1
    x60       c2                            581
    x60       c4                            686
    x60       c14                           781
    x60       c24                           277
    x60       c28                           875
    x61       obj1                            1
    x61       c4                            842
    x61       c13                           406
    x61       c31                           958
    x62       obj1                            1
    x62       c5                            871
    x62       c16                           476
    x62       c21                           444
    x62       c31                           689
    x62       c32                           639
    x63       obj1                            1
    x63       c6                            790
    x64       obj1                            1
    x64       c26                           505
    x65       obj1                            1
    x65       c27                           159
    x66       obj1                            1
    x66       c3                            212
    x66       c5                            835
    x66       c14                           246
    x66       c18                           829
    x67       obj1                            1
    x67       c1                            359
    x67       c13                           448
    x67       c25                           399
    x68       obj1                            1
    x68       c15                           717
    x68       c17                           580
    x68       c25                           531
    x68       c29                           250
    x69       obj1                            1
    x69       c2                            606
    x69       c8                            108
    x69       c9                            825
    x69       c18                           968
    x69       c30                           168
    x70       obj1                            1
    x70       c3                            994
    x70       c10                           434
    x70       c12                           529
    x70       c20                           325
    x70       c24                           282
    x70       c33                           620
    MARK0001  'MARKER'                 'INTEND'
RHS
    rhs       c1                           3064
    rhs       c2                           2655
    rhs       c3                           1571
    rhs       c4                           3038
    rhs       c5                           3138
    rhs       c6                           1701
    rhs       c7                           2710
    rhs       c8                           1921
    rhs       c9                           2762
    rhs       c10                          2558
    rhs       c11                          1184
    rhs       c12                          1084
    rhs       c13                          1370
    rhs       c14                          2809
    rhs       c15                          2443
    rhs       c16                          2447
    rhs       c17                          2437
    rhs       c18                          1765
    rhs       c19                          1130
    rhs       c20                          1975
    rhs       c21                          2456
    rhs       c22                          1970
    rhs       c23                          1268
    rhs       c24                          2243
    rhs       c25                          2164
    rhs       c26                          1179
    rhs       c27                          1191
    rhs       c28                          2005
    rhs       c29                          2554
    rhs       c30                          1798
    rhs       c31                          3303
    rhs       c32                          2810
    rhs       c33                          2275
    rhs       c34                          1863
    rhs       c35                          1744
BOUNDS
 LI bnd       x1        0
 LI bnd       x2        0
 LI bnd       x3        0
 LI bnd       x4        0
 LI bnd       x5        0
 LI bnd       x6        0
 LI bnd       x7        0
 LI bnd       x8        0
 LI bnd       x9        0
 LI bnd       x10       0
 LI bnd       x11       0
 LI bnd       x12       0
 LI bnd       x13       0
 LI bnd       x14       0
 LI bnd       x15       0
 LI bnd       x16       0
 LI bnd       x17       0
 LI bnd       x18       0
 LI bnd       x19       0
 LI bnd       x20       0
 LI bnd       x21       0
 LI bnd       x22       0
 LI bnd       x23       0
 LI bnd       x24       0
 LI bnd       x25       0
 LI bnd       x26       0
 LI bnd       x27       0
 LI bnd       x28       0
 LI bnd       x29       0
 LI bnd       x30       0
 LI bnd       x31       0
 LI bnd       x32       0
 LI bnd       x33       0
 LI bnd       x34       0
 LI bnd       x35       0
 LI bnd       x36       0
 LI bnd       x37       0
 LI bnd       x38       0
 LI bnd       x39       0
 LI bnd       x40       0
 LI bnd       x41       0
 LI bnd       x42       0
 LI bnd       x43       0
 LI bnd       x44       0
 LI bnd       x45       0
 LI bnd       x46       0
 LI bnd       x47       0
 LI bnd       x48       0
 LI bnd       x49       0
 LI bnd       x50       0
 LI bnd       x51       0
 LI bnd       x52       0
 LI bnd       x53       0
 LI bnd       x54       0
 LI bnd       x55       0
 LI bnd       x56       0
 LI bnd       x57       0
 LI bnd       x58       0
 LI bnd       x59       0
 LI bnd       x60       0
 LI bnd       x61       0
 LI bnd       x62       0
 LI bnd       x63       0
 LI bnd       x64       0
 LI bnd       x65       0
 LI bnd       x66       0
 LI bnd       x67       0
 LI bnd       x68       0
 LI bnd       x69       0
 LI bnd       x70       0
ENDATA
